NAME          COPTPROB
OBJSENSE
  MIN
ROWS
 N  __OBJ___
 L  C2      
 L  C6      
 L  C9      
 L  C10     
 L  C13     
 L  C14     
 L  C15     
 L  C18     
 L  C23     
 L  C28     
 L  C29     
 L  C30     
 L  C33     
 L  C34     
 L  C35     
 L  C39     
 L  C40     
 L  C44     
 L  C45     
 L  C46     
 L  C47     
 L  C49     
 L  C50     
 L  C53     
 L  C56     
 L  C58     
 L  C59     
 L  C63     
 L  C65     
 L  C66     
 L  C67     
 L  C69     
 L  C70     
 L  C73     
 L  C76     
 L  C78     
 L  C83     
 L  C84     
 L  C85     
 L  C86     
 L  C87     
 L  C88     
 L  C91     
 L  C93     
 L  C95     
 L  C98     
 L  C99     
 L  C104    
 L  C106    
 L  C107    
 L  C109    
 L  C111    
 L  C112    
 L  C116    
 L  C118    
 L  C120    
 L  C121    
 L  C122    
 L  C124    
 L  C127    
 L  C128    
 L  C130    
 L  C131    
 L  C133    
 L  C134    
 L  C136    
 L  C137    
 L  C138    
 L  C141    
 L  C144    
 L  C145    
 L  C146    
 L  C147    
 L  C148    
 L  C149    
 L  C151    
 L  C153    
 L  C155    
 L  C159    
 L  C161    
 L  C162    
 L  C163    
 L  C164    
 L  C165    
 L  C167    
 L  C170    
 L  C171    
 L  C172    
 L  C174    
 L  C175    
 L  C177    
 L  C178    
 L  C180    
 L  C181    
 L  C184    
 L  C185    
 L  C186    
 L  C191    
 L  C193    
 L  C199    
 L  C201    
 L  C202    
 L  C203    
 L  C204    
 L  C205    
 L  C206    
 L  C209    
 L  C211    
 L  C212    
 L  C216    
 L  C221    
 L  C223    
 L  C226    
 L  C227    
 L  C228    
 L  C230    
 L  C231    
 L  C234    
 L  C236    
 L  C237    
 L  C238    
 L  C240    
 L  C241    
 L  C243    
 L  C249    
 L  C253    
 L  C254    
 L  C256    
 L  C260    
 L  C261    
 L  C264    
 L  C265    
 L  C266    
 L  C269    
 L  C272    
 L  C275    
 L  C277    
 L  C278    
 L  C279    
 L  C280    
 L  C285    
 L  C286    
 L  C289    
 L  C291    
 L  C293    
 L  C295    
 L  C296    
 L  C298    
 L  C300    
 L  C302    
 L  C304    
 L  C305    
 L  C307    
 L  C308    
 L  C309    
 L  C311    
 L  C312    
 L  C314    
 L  C316    
 L  C319    
 L  C320    
 L  C322    
 L  C323    
 L  C324    
 L  C325    
 L  C326    
 L  C327    
 L  C332    
 L  C333    
 L  C337    
 L  C338    
 L  C341    
 L  C342    
 L  C344    
 L  C345    
 L  C347    
 L  C355    
 L  C356    
 L  C357    
 L  C358    
 L  C360    
 L  C363    
 L  C364    
 L  C365    
 L  C366    
 L  C369    
 L  C370    
 L  C371    
 L  C372    
 L  C375    
 L  C377    
 L  C381    
 L  C386    
 L  C387    
 L  C388    
 L  C389    
 L  C392    
 L  C395    
 L  C396    
COLUMNS
    MARKER    'MARKER'                 'INTORG'
    x2        __OBJ___  598
    x2        C28       -1
    x2        C91       -1
    x3        __OBJ___  142
    x3        C33       -1
    x3        C45       -1
    x3        C86       -1
    x3        C366      -1
    x5        __OBJ___  236
    x5        C111      -1
    x5        C253      -1
    x5        C278      -1
    x7        __OBJ___  472
    x7        C63       -1
    x7        C116      -1
    x7        C203      -1
    x10       __OBJ___  122
    x10       C256      -1
    x10       C285      -1
    x10       C311      -1
    x11       __OBJ___  679
    x11       C121      -1
    x11       C161      -1
    x11       C326      -1
    x11       C371      -1
    x12       __OBJ___  742
    x12       C87       -1
    x12       C264      -1
    x14       __OBJ___  650
    x14       C84       -1
    x14       C172      -1
    x14       C300      -1
    x14       C345      -1
    x16       __OBJ___  522
    x16       C164      -1
    x16       C227      -1
    x16       C231      -1
    x17       __OBJ___  376
    x17       C6        -1
    x17       C122      -1
    x17       C167      -1
    x17       C363      -1
    x18       __OBJ___  187
    x18       C162      -1
    x18       C204      -1
    x19       __OBJ___  330
    x19       C133      -1
    x19       C193      -1
    x19       C319      -1
    x20       __OBJ___  650
    x20       C18       -1
    x20       C107      -1
    x20       C124      -1
    x20       C163      -1
    x20       C324      -1
    x21       __OBJ___  287
    x21       C40       -1
    x21       C47       -1
    x21       C120      -1
    x21       C237      -1
    x23       __OBJ___  999
    x23       C127      -1
    x23       C265      -1
    x23       C395      -1
    x24       __OBJ___  711
    x24       C70       -1
    x24       C136      -1
    x24       C254      -1
    x24       C277      -1
    x24       C314      -1
    x25       __OBJ___  449
    x25       C10       -1
    x25       C56       -1
    x25       C128      -1
    x25       C146      -1
    x25       C178      -1
    x25       C272      -1
    x25       C308      -1
    x26       __OBJ___  55
    x26       C137      -1
    x26       C148      -1
    x26       C185      -1
    x27       __OBJ___  739
    x27       C49       -1
    x27       C88       -1
    x27       C109      -1
    x27       C141      -1
    x27       C228      -1
    x28       __OBJ___  311
    x28       C78       -1
    x28       C320      -1
    x28       C327      -1
    x32       __OBJ___  755
    x32       C2        -1
    x32       C59       -1
    x32       C130      -1
    x32       C144      -1
    x32       C191      -1
    x32       C236      -1
    x32       C322      -1
    x32       C360      -1
    x38       __OBJ___  77
    x38       C46       -1
    x38       C261      -1
    x38       C396      -1
    x41       __OBJ___  853
    x41       C76       -1
    x41       C375      -1
    x42       __OBJ___  68
    x42       C73       -1
    x42       C238      -1
    x42       C269      -1
    x42       C304      -1
    x44       __OBJ___  757
    x44       C184      -1
    x44       C289      -1
    x44       C338      -1
    x44       C370      -1
    x46       __OBJ___  344
    x46       C30       -1
    x46       C153      -1
    x46       C205      -1
    x46       C325      -1
    x48       __OBJ___  164
    x48       C15       -1
    x48       C50       -1
    x48       C131      -1
    x50       __OBJ___  772
    x50       C13       -1
    x50       C134      -1
    x50       C323      -1
    x55       __OBJ___  84
    x55       C249      -1
    x55       C305      -1
    x55       C388      -1
    x58       __OBJ___  302
    x58       C279      -1
    x58       C302      -1
    x58       C358      -1
    x63       __OBJ___  846
    x63       C147      -1
    x63       C377      -1
    x65       __OBJ___  535
    x65       C85       -1
    x65       C118      -1
    x65       C369      -1
    x65       C386      -1
    x66       __OBJ___  524
    x66       C177      -1
    x66       C337      -1
    x68       __OBJ___  319
    x68       C53       -1
    x68       C202      -1
    x68       C243      -1
    x68       C296      -1
    x74       __OBJ___  379
    x74       C69       -1
    x74       C145      -1
    x74       C209      -1
    x74       C223      -1
    x79       __OBJ___  345
    x79       C174      -1
    x79       C206      -1
    x79       C293      -1
    x83       __OBJ___  473
    x83       C29       -1
    x83       C93       -1
    x83       C112      -1
    x83       C159      -1
    x83       C199      -1
    x85       __OBJ___  843
    x85       C9        -1
    x85       C149      -1
    x85       C175      -1
    x85       C291      -1
    x85       C307      -1
    x86       __OBJ___  234
    x86       C170      -1
    x86       C234      -1
    x86       C298      -1
    x86       C356      -1
    x86       C372      -1
    x88       __OBJ___  699
    x88       C180      -1
    x88       C275      -1
    x88       C286      -1
    x88       C309      -1
    x88       C355      -1
    x88       C392      -1
    x89       __OBJ___  324
    x89       C99       -1
    x89       C104      -1
    x89       C216      -1
    x89       C226      -1
    x89       C316      -1
    x90       __OBJ___  268
    x90       C230      -1
    x90       C344      -1
    x90       C347      -1
    x92       __OBJ___  662
    x92       C35       -1
    x92       C95       -1
    x92       C221      -1
    x92       C241      -1
    x92       C381      -1
    x95       __OBJ___  166
    x95       C106      -1
    x95       C212      -1
    x95       C266      -1
    x96       __OBJ___  476
    x96       C49       -1
    x96       C389      -1
    x97       __OBJ___  25
    x97       C155      -1
    x97       C206      -1
    x101      __OBJ___  858
    x101      C227      -1
    x101      C228      -1
    x101      C289      -1
    x101      C365      -1
    x103      __OBJ___  420
    x103      C141      -1
    x103      C151      -1
    x105      __OBJ___  487
    x105      C279      -1
    x105      C311      -1
    x105      C365      -1
    x107      __OBJ___  215
    x107      C58       -1
    x107      C99       -1
    x109      __OBJ___  424
    x109      C293      -1
    x109      C316      -1
    x111      __OBJ___  610
    x111      C39       -1
    x111      C78       -1
    x111      C204      -1
    x111      C256      -1
    x111      C387      -1
    x113      __OBJ___  9
    x113      C44       -1
    x114      __OBJ___  179
    x114      C138      -1
    x114      C216      -1
    x114      C298      -1
    x116      __OBJ___  374
    x116      C30       -1
    x116      C137      -1
    x116      C269      -1
    x116      C366      -1
    x120      __OBJ___  911
    x120      C56       -1
    x120      C191      -1
    x120      C320      -1
    x120      C375      -1
    x124      __OBJ___  807
    x124      C91       -1
    x124      C124      -1
    x124      C256      -1
    x128      __OBJ___  759
    x128      C28       -1
    x128      C165      -1
    x128      C249      -1
    x130      __OBJ___  430
    x130      C34       -1
    x130      C223      -1
    x135      __OBJ___  213
    x135      C141      -1
    x135      C145      -1
    x135      C149      -1
    x135      C240      -1
    x135      C381      -1
    x137      __OBJ___  239
    x137      C50       -1
    x137      C326      -1
    x140      __OBJ___  774
    x140      C49       -1
    x140      C227      -1
    x140      C323      -1
    x140      C356      -1
    x140      C396      -1
    x141      __OBJ___  553
    x141      C130      -1
    x141      C146      -1
    x141      C295      -1
    x143      __OBJ___  274
    x143      C260      -1
    x143      C289      -1
    x144      __OBJ___  590
    x144      C70       -1
    x144      C269      -1
    x144      C333      -1
    x145      __OBJ___  598
    x145      C40       -1
    x145      C325      -1
    x145      C326      -1
    x145      C327      -1
    x147      __OBJ___  197
    x147      C34       -1
    x147      C76       -1
    x148      __OBJ___  983
    x148      C15       -1
    x148      C332      -1
    x148      C375      -1
    x149      __OBJ___  929
    x149      C130      -1
    x149      C312      -1
    x150      __OBJ___  517
    x150      C13       -1
    x150      C111      -1
    x150      C212      -1
    x151      __OBJ___  873
    x151      C15       -1
    x151      C93       -1
    x151      C178      -1
    x152      __OBJ___  74
    x152      C69       -1
    x152      C261      -1
    x153      __OBJ___  275
    x153      C56       -1
    x153      C121      -1
    x154      __OBJ___  565
    x154      C84       -1
    x154      C144      -1
    x156      __OBJ___  484
    x156      C98       -1
    x156      C240      -1
    x156      C279      -1
    x157      __OBJ___  26
    x157      C167      -1
    x157      C174      -1
    x157      C300      -1
    x158      __OBJ___  284
    x158      C14       -1
    x158      C122      -1
    x158      C153      -1
    x159      __OBJ___  313
    x159      C85       -1
    x159      C371      -1
    x161      __OBJ___  389
    x161      C298      -1
    x161      C307      -1
    x161      C308      -1
    x167      __OBJ___  494
    x167      C18       -1
    x167      C23       -1
    x167      C78       -1
    x167      C106      -1
    x168      __OBJ___  269
    x168      C153      -1
    x168      C170      -1
    x168      C261      -1
    x173      __OBJ___  475
    x173      C211      -1
    x173      C241      -1
    x174      __OBJ___  355
    x174      C2        -1
    x174      C84       -1
    x176      __OBJ___  82
    x176      C171      -1
    x176      C309      -1
    x176      C357      -1
    x178      __OBJ___  890
    x178      C163      -1
    x178      C275      -1
    x179      __OBJ___  345
    x179      C131      -1
    x179      C347      -1
    x186      __OBJ___  672
    x186      C133      -1
    x186      C164      -1
    x190      __OBJ___  37
    x190      C46       -1
    x190      C83       -1
    x191      __OBJ___  75
    x191      C237      -1
    x191      C364      -1
    x192      __OBJ___  50
    x192      C99       -1
    x192      C307      -1
    x193      __OBJ___  230
    x193      C44       -1
    x193      C193      -1
    x193      C243      -1
    x195      __OBJ___  410
    x195      C289      -1
    x195      C295      -1
    x195      C312      -1
    x198      __OBJ___  477
    x198      C228      -1
    x198      C326      -1
    x200      __OBJ___  737
    x200      C118      -1
    x200      C236      -1
    x202      __OBJ___  164
    x202      C109      -1
    x202      C291      -1
    x205      __OBJ___  380
    x205      C59       -1
    x205      C165      -1
    x205      C178      -1
    x205      C199      -1
    x205      C204      -1
    x205      C211      -1
    x205      C323      -1
    x206      __OBJ___  451
    x206      C91       -1
    x206      C136      -1
    x210      __OBJ___  606
    x210      C23       -1
    x210      C58       -1
    x210      C308      -1
    x211      __OBJ___  311
    x211      C118      -1
    x211      C186      -1
    x211      C249      -1
    x212      __OBJ___  386
    x212      C33       -1
    x212      C87       -1
    x212      C175      -1
    x213      __OBJ___  199
    x213      C240      -1
    x213      C366      -1
    x215      __OBJ___  96
    x215      C104      -1
    x215      C234      -1
    x217      __OBJ___  327
    x217      C45       -1
    x217      C85       -1
    x217      C95       -1
    x217      C211      -1
    x217      C332      -1
    x218      __OBJ___  962
    x218      C76       -1
    x218      C78       -1
    x218      C307      -1
    x218      C323      -1
    x218      C365      -1
    x218      C372      -1
    x220      __OBJ___  472
    x220      C76       -1
    x220      C134      -1
    x220      C308      -1
    x220      C364      -1
    x223      __OBJ___  409
    x223      C171      -1
    x223      C333      -1
    x223      C358      -1
    x225      __OBJ___  122
    x225      C66       -1
    x225      C67       -1
    x228      __OBJ___  172
    x228      C212      -1
    x228      C341      -1
    x231      __OBJ___  308
    x231      C78       -1
    x231      C133      -1
    x231      C147      -1
    x232      __OBJ___  319
    x232      C23       -1
    x238      __OBJ___  653
    x238      C88       -1
    x238      C124      -1
    x238      C164      -1
    x238      C184      -1
    x238      C216      -1
    x240      __OBJ___  59
    x240      C10       -1
    x240      C231      -1
    x241      __OBJ___  495
    x241      C227      -1
    x242      __OBJ___  224
    x242      C104      -1
    x242      C387      -1
    x243      __OBJ___  150
    x243      C209      -1
    x243      C345      -1
    x244      __OBJ___  588
    x244      C69       -1
    x244      C172      -1
    x244      C291      -1
    x246      __OBJ___  745
    x246      C122      -1
    x246      C181      -1
    x246      C212      -1
    x246      C240      -1
    x247      __OBJ___  317
    x247      C59       -1
    x247      C98       -1
    x247      C265      -1
    x248      __OBJ___  426
    x248      C44       -1
    x248      C141      -1
    x248      C316      -1
    x248      C319      -1
    x248      C389      -1
    x249      __OBJ___  961
    x249      C93       -1
    x249      C322      -1
    x249      C347      -1
    x250      __OBJ___  152
    x250      C136      -1
    x250      C226      -1
    x251      __OBJ___  831
    x251      C137      -1
    x251      C264      -1
    x251      C360      -1
    x257      __OBJ___  389
    x257      C23       -1
    x257      C59       -1
    x257      C293      -1
    x259      __OBJ___  484
    x259      C191      -1
    x259      C366      -1
    x260      __OBJ___  70
    x260      C47       -1
    x260      C63       -1
    x260      C86       -1
    x260      C193      -1
    x260      C295      -1
    x263      __OBJ___  71
    x263      C34       -1
    x263      C162      -1
    x263      C388      -1
    x265      __OBJ___  593
    x265      C191      -1
    x265      C323      -1
    x268      __OBJ___  660
    x268      C78       -1
    x268      C130      -1
    x268      C155      -1
    x268      C199      -1
    x268      C243      -1
    x269      __OBJ___  58
    x269      C120      -1
    x269      C256      -1
    x269      C371      -1
    x271      __OBJ___  251
    x271      C88       -1
    x271      C106      -1
    x271      C206      -1
    x271      C342      -1
    x273      __OBJ___  49
    x273      C302      -1
    x273      C327      -1
    x273      C332      -1
    x274      __OBJ___  513
    x274      C9        -1
    x274      C65       -1
    x274      C277      -1
    x275      __OBJ___  147
    x275      C155      -1
    x275      C159      -1
    x275      C230      -1
    x275      C363      -1
    x275      C365      -1
    x276      __OBJ___  383
    x276      C45       -1
    x276      C323      -1
    x276      C369      -1
    x280      __OBJ___  135
    x280      C34       -1
    x280      C95       -1
    x284      __OBJ___  61
    x284      C128      -1
    x284      C230      -1
    x284      C278      -1
    x284      C304      -1
    x285      __OBJ___  458
    x285      C35       -1
    x285      C124      -1
    x285      C178      -1
    x285      C186      -1
    x286      __OBJ___  311
    x286      C304      -1
    x286      C355      -1
    x287      __OBJ___  124
    x287      C138      -1
    x287      C363      -1
    x288      __OBJ___  600
    x288      C6        -1
    x288      C172      -1
    x288      C279      -1
    x289      __OBJ___  364
    x289      C85       -1
    x289      C372      -1
    x300      __OBJ___  244
    x300      C39       -1
    x300      C47       -1
    x300      C67       -1
    x300      C366      -1
    x303      __OBJ___  44
    x303      C199      -1
    x305      __OBJ___  354
    x305      C65       -1
    x305      C151      -1
    x305      C241      -1
    x305      C372      -1
    x306      __OBJ___  456
    x306      C180      -1
    x307      __OBJ___  676
    x307      C91       -1
    x307      C265      -1
    x307      C280      -1
    x308      __OBJ___  82
    x308      C165      -1
    x308      C203      -1
    x308      C286      -1
    x309      __OBJ___  574
    x309      C144      -1
    x309      C172      -1
    x309      C386      -1
    x312      __OBJ___  353
    x312      C9        -1
    x312      C141      -1
    x312      C304      -1
    x312      C332      -1
    x313      __OBJ___  290
    x313      C10       -1
    x313      C69       -1
    x313      C112      -1
    x313      C137      -1
    x313      C314      -1
    x313      C326      -1
    x313      C364      -1
    x314      __OBJ___  3
    x314      C83       -1
    x314      C272      -1
    x314      C304      -1
    x315      __OBJ___  418
    x315      C116      -1
    x315      C293      -1
    x316      __OBJ___  425
    x316      C15       -1
    x316      C46       -1
    x316      C136      -1
    x316      C185      -1
    x316      C364      -1
    x317      __OBJ___  244
    x317      C10       -1
    x317      C201      -1
    x318      __OBJ___  165
    x318      C338      -1
    x318      C392      -1
    x319      __OBJ___  385
    x319      C172      -1
    x319      C357      -1
    x320      __OBJ___  869
    x320      C53       -1
    x320      C70       -1
    x320      C91       -1
    x321      __OBJ___  944
    x321      C159      -1
    x321      C161      -1
    x321      C202      -1
    x321      C320      -1
    x322      __OBJ___  127
    x322      C122      -1
    x322      C356      -1
    x324      __OBJ___  106
    x324      C177      -1
    x324      C238      -1
    x324      C280      -1
    x324      C344      -1
    x324      C356      -1
    x324      C370      -1
    x325      __OBJ___  100
    x325      C14       -1
    x325      C107      -1
    x326      __OBJ___  965
    x326      C78       -1
    x326      C375      -1
    x329      __OBJ___  96
    x329      C73       -1
    x329      C226      -1
    x329      C249      -1
    x329      C357      -1
    x330      __OBJ___  790
    x330      C35       -1
    x330      C162      -1
    x330      C223      -1
    x330      C363      -1
    x330      C366      -1
    x334      __OBJ___  532
    x334      C84       -1
    x334      C333      -1
    x336      __OBJ___  237
    x336      C134      -1
    x336      C261      -1
    x337      __OBJ___  665
    x337      C39       -1
    x337      C86       -1
    x337      C395      -1
    x342      __OBJ___  123
    x342      C199      -1
    x342      C314      -1
    x348      __OBJ___  251
    x348      C149      -1
    x348      C212      -1
    x349      __OBJ___  464
    x349      C175      -1
    x349      C184      -1
    x354      __OBJ___  927
    x354      C23       -1
    x354      C87       -1
    x354      C151      -1
    x354      C291      -1
    x355      __OBJ___  28
    x355      C56       -1
    x355      C366      -1
    x356      __OBJ___  602
    x356      C184      -1
    x356      C320      -1
    x359      __OBJ___  114
    x359      C199      -1
    x359      C316      -1
    x359      C326      -1
    x360      __OBJ___  800
    x360      C155      -1
    x360      C254      -1
    x360      C316      -1
    x361      __OBJ___  889
    x361      C28       -1
    x361      C84       -1
    x361      C124      -1
    x362      __OBJ___  331
    x362      C95       -1
    x362      C144      -1
    x363      __OBJ___  49
    x363      C298      -1
    x363      C342      -1
    x364      __OBJ___  829
    x364      C146      -1
    x364      C375      -1
    x364      C392      -1
    x367      __OBJ___  667
    x367      C151      -1
    x367      C277      -1
    x369      __OBJ___  967
    x369      C29       -1
    x369      C253      -1
    x369      C277      -1
    x370      __OBJ___  991
    x370      C147      -1
    x370      C264      -1
    x370      C372      -1
    x372      __OBJ___  360
    x372      C127      -1
    x372      C280      -1
    x372      C370      -1
    x372      C371      -1
    x376      __OBJ___  632
    x376      C178      -1
    x376      C201      -1
    x376      C253      -1
    x376      C266      -1
    x376      C337      -1
    x378      __OBJ___  568
    x378      C177      -1
    x378      C296      -1
    x378      C333      -1
    x381      __OBJ___  564
    x381      C155      -1
    x381      C221      -1
    x381      C305      -1
    x382      __OBJ___  279
    x382      C141      -1
    x382      C181      -1
    x382      C285      -1
    x383      __OBJ___  619
    x383      C10       -1
    x383      C199      -1
    x383      C324      -1
    x386      __OBJ___  386
    x386      C15       -1
    x386      C66       -1
    x386      C204      -1
    x386      C278      -1
    x388      __OBJ___  565
    x388      C2        -1
    x388      C289      -1
    x389      __OBJ___  255
    x389      C50       -1
    x389      C341      -1
    x392      __OBJ___  132
    x392      C148      -1
    x392      C237      -1
    x392      C260      -1
    x393      __OBJ___  737
    x393      C40       -1
    x393      C46       -1
    x393      C180      -1
    x393      C377      -1
    x395      __OBJ___  141
    x395      C205      -1
    x395      C298      -1
    x397      __OBJ___  152
    x397      C256      -1
    x397      C332      -1
    x397      C342      -1
    x398      __OBJ___  138
    x398      C86       -1
    x398      C238      -1
    x398      C371      -1
    MARKER    'MARKER'                 'INTEND'
RHS
    RHS       __OBJ___  -16797
    RHS       C2        -1
    RHS       C6        -1
    RHS       C9        -1
    RHS       C10       -1
    RHS       C13       -1
    RHS       C14       -1
    RHS       C15       -1
    RHS       C18       -1
    RHS       C23       -1
    RHS       C28       -1
    RHS       C29       -1
    RHS       C30       -1
    RHS       C33       -1
    RHS       C34       -1
    RHS       C35       -1
    RHS       C39       -1
    RHS       C40       -1
    RHS       C44       -1
    RHS       C45       -1
    RHS       C46       -1
    RHS       C47       -1
    RHS       C49       -1
    RHS       C50       -1
    RHS       C53       -1
    RHS       C56       -1
    RHS       C58       -1
    RHS       C59       -1
    RHS       C63       -1
    RHS       C65       -1
    RHS       C66       -1
    RHS       C67       -1
    RHS       C69       -1
    RHS       C70       -1
    RHS       C73       -1
    RHS       C76       -1
    RHS       C78       -1
    RHS       C83       -1
    RHS       C84       -1
    RHS       C85       -1
    RHS       C86       -1
    RHS       C87       -1
    RHS       C88       -1
    RHS       C91       -1
    RHS       C93       -1
    RHS       C95       -1
    RHS       C98       -1
    RHS       C99       -1
    RHS       C104      -1
    RHS       C106      -1
    RHS       C107      -1
    RHS       C109      -1
    RHS       C111      -1
    RHS       C112      -1
    RHS       C116      -1
    RHS       C118      -1
    RHS       C120      -1
    RHS       C121      -1
    RHS       C122      -1
    RHS       C124      -1
    RHS       C127      -1
    RHS       C128      -1
    RHS       C130      -1
    RHS       C131      -1
    RHS       C133      -1
    RHS       C134      -1
    RHS       C136      -1
    RHS       C137      -1
    RHS       C138      -1
    RHS       C141      -1
    RHS       C144      -1
    RHS       C145      -1
    RHS       C146      -1
    RHS       C147      -1
    RHS       C148      -1
    RHS       C149      -1
    RHS       C151      -1
    RHS       C153      -1
    RHS       C155      -1
    RHS       C159      -1
    RHS       C161      -1
    RHS       C162      -1
    RHS       C163      -1
    RHS       C164      -1
    RHS       C165      -1
    RHS       C167      -1
    RHS       C170      -1
    RHS       C171      -1
    RHS       C172      -1
    RHS       C174      -1
    RHS       C175      -1
    RHS       C177      -1
    RHS       C178      -1
    RHS       C180      -1
    RHS       C181      -1
    RHS       C184      -1
    RHS       C185      -1
    RHS       C186      -1
    RHS       C191      -1
    RHS       C193      -1
    RHS       C199      -1
    RHS       C201      -1
    RHS       C202      -1
    RHS       C203      -1
    RHS       C204      -1
    RHS       C205      -1
    RHS       C206      -1
    RHS       C209      -1
    RHS       C211      -1
    RHS       C212      -1
    RHS       C216      -1
    RHS       C221      -1
    RHS       C223      -1
    RHS       C226      -1
    RHS       C227      -1
    RHS       C228      -1
    RHS       C230      -1
    RHS       C231      -1
    RHS       C234      -1
    RHS       C236      -1
    RHS       C237      -1
    RHS       C238      -1
    RHS       C240      -1
    RHS       C241      -1
    RHS       C243      -1
    RHS       C249      -1
    RHS       C253      -1
    RHS       C254      -1
    RHS       C256      -1
    RHS       C260      -1
    RHS       C261      -1
    RHS       C264      -1
    RHS       C265      -1
    RHS       C266      -1
    RHS       C269      -1
    RHS       C272      -1
    RHS       C275      -1
    RHS       C277      -1
    RHS       C278      -1
    RHS       C279      -1
    RHS       C280      -1
    RHS       C285      -1
    RHS       C286      -1
    RHS       C289      -1
    RHS       C291      -1
    RHS       C293      -1
    RHS       C295      -1
    RHS       C296      -1
    RHS       C298      -1
    RHS       C300      -1
    RHS       C302      -1
    RHS       C304      -1
    RHS       C305      -1
    RHS       C307      -1
    RHS       C308      -1
    RHS       C309      -1
    RHS       C311      -1
    RHS       C312      -1
    RHS       C314      -1
    RHS       C316      -1
    RHS       C319      -1
    RHS       C320      -1
    RHS       C322      -1
    RHS       C323      -1
    RHS       C324      -1
    RHS       C325      -1
    RHS       C326      -1
    RHS       C327      -1
    RHS       C332      -1
    RHS       C333      -1
    RHS       C337      -1
    RHS       C338      -1
    RHS       C341      -1
    RHS       C342      -1
    RHS       C344      -1
    RHS       C345      -1
    RHS       C347      -1
    RHS       C355      -1
    RHS       C356      -1
    RHS       C357      -1
    RHS       C358      -1
    RHS       C360      -1
    RHS       C363      -1
    RHS       C364      -1
    RHS       C365      -1
    RHS       C366      -1
    RHS       C369      -1
    RHS       C370      -1
    RHS       C371      -1
    RHS       C372      -1
    RHS       C375      -1
    RHS       C377      -1
    RHS       C381      -1
    RHS       C386      -1
    RHS       C387      -1
    RHS       C388      -1
    RHS       C389      -1
    RHS       C392      -1
    RHS       C395      -1
    RHS       C396      -1
BOUNDS
 UP BOUND     x2        1
 UP BOUND     x3        1
 UP BOUND     x5        1
 UP BOUND     x7        1
 UP BOUND     x10       1
 UP BOUND     x11       1
 UP BOUND     x12       1
 UP BOUND     x14       1
 UP BOUND     x16       1
 UP BOUND     x17       1
 UP BOUND     x18       1
 UP BOUND     x19       1
 UP BOUND     x20       1
 UP BOUND     x21       1
 UP BOUND     x23       1
 UP BOUND     x24       1
 UP BOUND     x25       1
 UP BOUND     x26       1
 UP BOUND     x27       1
 UP BOUND     x28       1
 UP BOUND     x32       1
 UP BOUND     x38       1
 UP BOUND     x41       1
 UP BOUND     x42       1
 UP BOUND     x44       1
 UP BOUND     x46       1
 UP BOUND     x48       1
 UP BOUND     x50       1
 UP BOUND     x55       1
 UP BOUND     x58       1
 UP BOUND     x63       1
 UP BOUND     x65       1
 UP BOUND     x66       1
 UP BOUND     x68       1
 UP BOUND     x74       1
 UP BOUND     x79       1
 UP BOUND     x83       1
 UP BOUND     x85       1
 UP BOUND     x86       1
 UP BOUND     x88       1
 UP BOUND     x89       1
 UP BOUND     x90       1
 UP BOUND     x92       1
 UP BOUND     x95       1
 UP BOUND     x96       1
 UP BOUND     x97       1
 UP BOUND     x101      1
 UP BOUND     x103      1
 UP BOUND     x105      1
 UP BOUND     x107      1
 UP BOUND     x109      1
 UP BOUND     x111      1
 UP BOUND     x113      1
 UP BOUND     x114      1
 UP BOUND     x116      1
 UP BOUND     x120      1
 UP BOUND     x124      1
 UP BOUND     x128      1
 UP BOUND     x130      1
 UP BOUND     x135      1
 UP BOUND     x137      1
 UP BOUND     x140      1
 UP BOUND     x141      1
 UP BOUND     x143      1
 UP BOUND     x144      1
 UP BOUND     x145      1
 UP BOUND     x147      1
 UP BOUND     x148      1
 UP BOUND     x149      1
 UP BOUND     x150      1
 UP BOUND     x151      1
 UP BOUND     x152      1
 UP BOUND     x153      1
 UP BOUND     x154      1
 UP BOUND     x156      1
 UP BOUND     x157      1
 UP BOUND     x158      1
 UP BOUND     x159      1
 UP BOUND     x161      1
 UP BOUND     x167      1
 UP BOUND     x168      1
 UP BOUND     x173      1
 UP BOUND     x174      1
 UP BOUND     x176      1
 UP BOUND     x178      1
 UP BOUND     x179      1
 UP BOUND     x186      1
 UP BOUND     x190      1
 UP BOUND     x191      1
 UP BOUND     x192      1
 UP BOUND     x193      1
 UP BOUND     x195      1
 UP BOUND     x198      1
 UP BOUND     x200      1
 UP BOUND     x202      1
 UP BOUND     x205      1
 UP BOUND     x206      1
 UP BOUND     x210      1
 UP BOUND     x211      1
 UP BOUND     x212      1
 UP BOUND     x213      1
 UP BOUND     x215      1
 UP BOUND     x217      1
 UP BOUND     x218      1
 UP BOUND     x220      1
 UP BOUND     x223      1
 UP BOUND     x225      1
 UP BOUND     x228      1
 UP BOUND     x231      1
 UP BOUND     x232      1
 UP BOUND     x238      1
 UP BOUND     x240      1
 UP BOUND     x241      1
 UP BOUND     x242      1
 UP BOUND     x243      1
 UP BOUND     x244      1
 UP BOUND     x246      1
 UP BOUND     x247      1
 UP BOUND     x248      1
 UP BOUND     x249      1
 UP BOUND     x250      1
 UP BOUND     x251      1
 UP BOUND     x257      1
 UP BOUND     x259      1
 UP BOUND     x260      1
 UP BOUND     x263      1
 UP BOUND     x265      1
 UP BOUND     x268      1
 UP BOUND     x269      1
 UP BOUND     x271      1
 UP BOUND     x273      1
 UP BOUND     x274      1
 UP BOUND     x275      1
 UP BOUND     x276      1
 UP BOUND     x280      1
 UP BOUND     x284      1
 UP BOUND     x285      1
 UP BOUND     x286      1
 UP BOUND     x287      1
 UP BOUND     x288      1
 UP BOUND     x289      1
 UP BOUND     x300      1
 UP BOUND     x303      1
 UP BOUND     x305      1
 UP BOUND     x306      1
 UP BOUND     x307      1
 UP BOUND     x308      1
 UP BOUND     x309      1
 UP BOUND     x312      1
 UP BOUND     x313      1
 UP BOUND     x314      1
 UP BOUND     x315      1
 UP BOUND     x316      1
 UP BOUND     x317      1
 UP BOUND     x318      1
 UP BOUND     x319      1
 UP BOUND     x320      1
 UP BOUND     x321      1
 UP BOUND     x322      1
 UP BOUND     x324      1
 UP BOUND     x325      1
 UP BOUND     x326      1
 UP BOUND     x329      1
 UP BOUND     x330      1
 UP BOUND     x334      1
 UP BOUND     x336      1
 UP BOUND     x337      1
 UP BOUND     x342      1
 UP BOUND     x348      1
 UP BOUND     x349      1
 UP BOUND     x354      1
 UP BOUND     x355      1
 UP BOUND     x356      1
 UP BOUND     x359      1
 UP BOUND     x360      1
 UP BOUND     x361      1
 UP BOUND     x362      1
 UP BOUND     x363      1
 UP BOUND     x364      1
 UP BOUND     x367      1
 UP BOUND     x369      1
 UP BOUND     x370      1
 UP BOUND     x372      1
 UP BOUND     x376      1
 UP BOUND     x378      1
 UP BOUND     x381      1
 UP BOUND     x382      1
 UP BOUND     x383      1
 UP BOUND     x386      1
 UP BOUND     x388      1
 UP BOUND     x389      1
 UP BOUND     x392      1
 UP BOUND     x393      1
 UP BOUND     x395      1
 UP BOUND     x397      1
 UP BOUND     x398      1
ENDATA
